80 80
85 59 1
31 25 1
46 85 1
16 96 1
65 46 1
47 59 1
53 88 1
4 24 1
55 88 1
96 36 1
49 57 1
69 73 1
45 40 1
99 46 1
88 15 1
100 100 1
56 92 1
13 12 1
60 16 1
18 92 1
44 64 1
26 87 1
87 49 1
81 73 1
98 14 1
61 62 1
24 38 1
76 97 1
41 30 1
72 58 1
60 36 1
26 54 1
27 34 1
50 31 1
18 34 1
87 66 1
45 82 1
15 70 1
53 54 1
47 88 1
19 62 1
25 98 1
54 50 1
28 9 1
2 97 1
67 69 1
43 13 1
86 52 1
86 42 1
63 72 1
75 64 1
10 72 1
90 87 1
71 30 1
41 58 1
22 58 1
72 53 1
77 99 1
61 85 1
78 32 1
19 97 1
5 67 1
91 66 1
67 50 1
55 6 1
10 57 1
21 59 1
10 100 1
34 3 1
80 23 1
72 50 1
64 5 1
46 44 1
39 56 1
100 63 1
17 20 1
13 18 1
42 76 1
94 53 1
92 35 1
300 300 
300 300 
300 300 
300 300 
300 300 
300 300 
300 300 
300 300 
300 300 
300 300 
300 300 
300 300 
300 300 
300 300 
300 300 
300 300 
300 300 
300 300 
300 300 
300 300 
300 300 
300 300 
300 300 
300 300 
300 300 
300 300 
300 300 
300 300 
300 300 
300 300 
300 300 
300 300 
300 300 
300 300 
300 300 
300 300 
300 300 
300 300 
300 300 
300 300 
300 300 
300 300 
300 300 
300 300 
300 300 
300 300 
300 300 
300 300 
300 300 
300 300 
300 300 
300 300 
300 300 
300 300 
300 300 
300 300 
300 300 
300 300 
300 300 
300 300 
300 300 
300 300 
300 300 
300 300 
300 300 
300 300 
300 300 
300 300 
300 300 
300 300 
300 300 
300 300 
300 300 
300 300 
300 300 
300 300 
300 300 
300 300 
300 300 
300 300 
